(declare-fun b_ack!47 () (_ BitVec 32))
(declare-fun a_ack!49 () (_ BitVec 32))
(declare-fun c_ack!48 () (_ BitVec 64))
(assert (not (bvslt b_ack!47 #x00000000)))
(assert (not (bvslt a_ack!49 #x00000000)))
(assert (= #x00000000 a_ack!49))
(assert (not (bvslt b_ack!47 #x00000000)))
(assert (not (= #x00000000 b_ack!47)))
(assert (not (= #x00000001 b_ack!47)))
(assert (fp.gt (fp.abs ((_ to_fp 11 53) c_ack!48)) ((_ to_fp 11 53) #x3ff0000000000000)))
(assert (bvslt #x00000001 b_ack!47))
(assert (let ((a!1 (fp.gt (fp.abs ((_ to_fp 11 53) c_ack!48))
                  (fp.div roundNearestTiesToEven
                          ((_ to_fp 11 53) #x7feccccccccccccc)
                          (fp.abs ((_ to_fp 11 53) c_ack!48))))))
  (not a!1)))

(check-sat)
(exit)
